ESTA SOLUCION NO ES VALIDA

Max time = 7200.0
Tried aggregator 2 times.
MIP Presolve eliminated 9366 rows and 48 columns.
MIP Presolve modified 314 coefficients.
Aggregator did 84 substitutions.
Reduced MIP has 3045 rows, 30310 columns, and 231494 nonzeros.
Reduced MIP has 30274 binaries, 36 generals, 0 SOSs, and 0 indicators.
Presolve time = 0.90 sec. (228.22 ticks)
Tried aggregator 1 time.
Reduced MIP has 3045 rows, 30310 columns, and 231494 nonzeros.
Reduced MIP has 30274 binaries, 36 generals, 0 SOSs, and 0 indicators.
Presolve time = 0.38 sec. (93.34 ticks)
Probing time = 0.33 sec. (10.92 ticks)
Clique table members: 39220.
MIP emphasis: balance optimality and feasibility.
MIP search method: dynamic search.
Parallel mode: deterministic, using up to 4 threads.
Root relaxation solution time = 13.13 sec. (2479.13 ticks)

        Nodes                                         Cuts/
   Node  Left     Objective  IInf  Best Integer    Best Bound    ItCnt     Gap

      0     0       26.0000  2742                     26.0000        0         
      0     2       26.0000  1426                     26.0000        0         
Elapsed time = 178.61 sec. (27809.18 ticks, tree = 0.01 MB, solutions = 0)
      1     3       26.0000  2072                     26.0000    27593         
      3     5       26.0000  2308                     26.0000    71416         
      5     4       26.0000  2181                     26.0000    44189         
      6     5       26.0000  2240                     26.0000    71839         
      7     7       26.0000  2381                     26.0000   104501         
      8     6       26.0000  2343                     26.0000    88809         
      9    11       26.0000  2314                     26.0000   156528         
     10     8       26.0000  2176                     26.0000   122211         
     11    12       26.0000  2674                     26.0000   163246         
     13     9       26.0000  2408                     26.0000   137871         
Elapsed time = 749.77 sec. (119052.02 ticks, tree = 0.03 MB, solutions = 0)
     15    13       26.0000  2411                     26.0000   190491         
     16    14       26.0000  2647                     26.0000   195710         
     17    15       26.0000  2729                     26.0000   198715         
     18    13       26.0000  2728                     26.0000   173426         
     20    14       26.0000  2728                     26.0000   189180         
     22    10       26.0000  2395                     26.0000   156101         
     23    14       26.0000  2452                     26.0000   209780         
     26    17       26.0000  2449                     26.0000   201814         
     28    19       26.0000  2523                     26.0000   228283         
     29    18       26.0000  2507                     26.0000   203524         
Elapsed time = 934.22 sec. (143614.53 ticks, tree = 0.08 MB, solutions = 0)
     31    25       26.0000  2646                     26.0000   243153         
     32    26       26.0000  2453                     26.0000   245037         
     33    16       26.0000  2525                     26.0000   193744         
     35    14       26.0000  2673                     26.0000   224559         
     37    30       26.0000  2522                     26.0000   264862         
     38    29       26.0000  2631                     26.0000   257400         
     40    32       26.0000  2498                     26.0000   272085         
     42    34       26.0000  2640                     26.0000   280725         
     45    34       26.0000  2468                     26.0000   274735         
     47    36       26.0000  2578                     26.0000   304619         
Elapsed time = 1087.53 sec. (165320.46 ticks, tree = 0.11 MB, solutions = 0)
     49    36       26.0000  2593                     26.0000   287541         
     51    43       26.0000  2407                     26.0000   323481         
     52    44       26.0000  2399                     26.0000   326667         
     54    45       26.0000  2358                     26.0000   333069         
     56    47       26.0000  2432                     26.0000   338260         
     57    46       26.0000  2277                     26.0000   335628         
     58    47       26.0000  2243                     26.0000   344182         
     59    48       26.0000  2169                     26.0000   348377         
     60    37       26.0000  2660                     26.0000   310396         
     61    21       26.0000  2528                     26.0000   232664         
Elapsed time = 1486.41 sec. (223191.41 ticks, tree = 0.46 MB, solutions = 0)
     62    56       26.0000  2552                     26.0000   382899         
     63    59       26.0000  2542                     26.0000   388259         
     64    60       26.0000  2581                     26.0000   392109         
     66    61       26.0000  2539                     26.0000   396432         
     67    62       26.0000  2539                     26.0000   398310         
     68    63       26.0000  2544                     26.0000   401372         
     69    64       26.0000  2524                     26.0000   405809         
     71    65       26.0000  2501                     26.0000   408640         
     73    48       26.0000  2379                     26.0000   347158         
     74    60       26.0000  2091                     26.0000   393667         
Elapsed time = 1617.01 sec. (241020.31 ticks, tree = 0.49 MB, solutions = 0)
     75    66       26.0000  2486                     26.0000   415325         
     77    61       26.0000  2062                     26.0000   399069         
     78    62       26.0000  2059                     26.0000   401116         
     79    61    infeasible                           26.0000   404516         
     80    62       26.0000  2372                     26.0000   402480         
     82    66       26.0000  2397                     26.0000   429590         
     84    62    infeasible                           26.0000   413265         
     87    63       26.0000  2031                     26.0000   415618         
     88    67       26.0000  2362                     26.0000   439055         
     90    75       26.0000  2409                     26.0000   461807         
Elapsed time = 1704.76 sec. (255876.35 ticks, tree = 0.57 MB, solutions = 0)
     91    64       26.0000  2287                     26.0000   411307         
     92    65       26.0000  1924                     26.0000   428831         
     94    68       26.0000  2287                     26.0000   441874         
     96    66       26.0000  2196                     26.0000   421328         
     98    77       26.0000  2337                     26.0000   467901         
    100    78       26.0000  2312                     26.0000   474987         
    103    79       26.0000  2306                     26.0000   478047         
    104    87       26.0889  1901                     26.0000   528114         
    105    81       26.0000  2075                     26.0000   484510         
    109    89       26.0000  1894                     26.0000   531344         
Elapsed time = 1830.56 sec. (274024.95 ticks, tree = 0.43 MB, solutions = 0)
    110    82       26.0000  2025                     26.0000   489214         
    113    93       26.0000  2103                     26.0000   562400         
    117    92       26.0000  1862                     26.0000   540179         
    119   100       26.0000  2209                     26.0000   583296         
    123    94       26.0000  2102                     26.0000   571032         
    124   101       26.0000  2142                     26.0000   590425         
    125    95       26.0000  2046                     26.0000   576627         
    126   102       26.0000  2078                     26.0000   596615         
    128   101    infeasible                           26.0000   599102         
    129   102       26.0000  2077                     26.0000   600662         
Elapsed time = 1961.24 sec. (291630.94 ticks, tree = 0.43 MB, solutions = 0)
    131   101    infeasible                           26.0000   603497         
    133   102       26.0000  2075                     26.0000   605662         
    134    99       26.0000  1884                     26.0000   592860         
    136   103       26.0000  2021                     26.0000   610614         
    137   107       26.0000  1863                     26.0000   623295         
    139   108       26.0000  1837                     26.0000   628596         
    141   107    infeasible                           26.0000   630667         
    142   108       26.0000  1837                     26.0000   634022         
    144   115       26.0000  1865                     26.0000   668131         
    146   108       26.0000  1832                     26.0000   639204         
Elapsed time = 2066.20 sec. (307227.63 ticks, tree = 0.85 MB, solutions = 0)
    148   117       26.0000  1770                     26.0000   676526         
    150   116    infeasible                           26.0000   678913         
    153   116    infeasible                           26.0000   682131         
    155   117       26.0000  1760                     26.0000   684458         
    157   116    infeasible                           26.0000   687558         
    158   117       26.0000  1763                     26.0000   689348         
    160   116    infeasible                           26.0000   691374         
    161   117       26.0000  1760                     26.0000   693225         
    163   118       26.0000  1691                     26.0000   696712         
    172   120       26.0000  1680                     26.0000   705162         
Elapsed time = 2180.26 sec. (324461.61 ticks, tree = 1.20 MB, solutions = 0)
    184   132       26.0000  1738                     26.0000   746673         
    201   137       26.0000  1901                     26.0000   761209         
    214   153       26.0000  1427                     26.0000   838502         
    224   156       26.0000  1334                     26.0000   852460         
    230   156    infeasible                           26.0000   866618         
    240   159       26.0267  1492                     26.0000   899342         
    244   161       26.0267  1434                     26.0000   912557         
    250   144       26.0000  1701                     26.0000   780448         
    257   162       26.1786  1483                     26.0000   927025         
    275   162       26.3122  1482                     26.0000   940462         
Elapsed time = 2464.83 sec. (368078.76 ticks, tree = 1.79 MB, solutions = 0)
    293   191       26.0000  1671                     26.0000  1036600         
    304   197       26.0000  1624                     26.0000  1048085         
    316   164       26.6667  1520                     26.0000   954066         
    337   167       28.0000  1403                     26.0000   967028         
    348   208       26.0000  1507                     26.0000  1075587         
    365   203       28.0000  1264                     26.0000  1102110         
    376   234       26.0000  1310                     26.0000  1188596         
    395   217    infeasible                           26.0000  1111430         
    407   220       26.0000  1359                     26.0000  1124957         
    416   258       26.0000  2464                     26.0000  1326692         
Elapsed time = 2728.54 sec. (409385.63 ticks, tree = 3.52 MB, solutions = 0)
    424   249       26.0909  1281                     26.0000  1248755         
    436   207       28.0000  1349                     26.0000  1109140         
    458   302       28.0000  1250                     26.0000  1400945         
    471   304    infeasible                           26.0000  1416190         
    486   265       26.0923  1258                     26.0000  1311895         
    498   334       26.1000  1270                     26.0000  1541406         
    505   336       26.3684  1215                     26.0000  1560270         
    512   339       26.3684  1164                     26.0000  1579438         
    519   366       27.0000  1347                     26.0000  1765826         
    527   370       27.0000  1252                     26.0000  1781331         
Elapsed time = 2983.43 sec. (450689.80 ticks, tree = 3.99 MB, solutions = 0)
    538   348       28.0000  1136                     26.0000  1633188         
    548   374       27.3333  1229                     26.0000  1819635         
    557   350    infeasible                           26.0000  1667853         
    569   353       28.0000  1134                     26.0000  1685362         
    576   382    infeasible                           26.0000  1867047         
    587   390    infeasible                           26.0000  1948974         
    595   393       26.0000  1575                     26.0000  1962226         
    600   411       27.6667  1228                     26.0000  2053418         
    606   413    infeasible                           26.0000  2069824         
    614   416       28.0000  1169                     26.0000  2083498         
Elapsed time = 3330.81 sec. (504723.97 ticks, tree = 4.50 MB, solutions = 0)
    628   423       28.0000  1169                     26.0000  2089753         
    634   436       28.0000  1155                     26.0000  2166975         
    644   452       26.0000  1714                     26.0000  2214469         
    651   437       26.0000  1388                     26.0000  2195679         
    666   442       26.0000  1344                     26.0000  2210684         
    673   435       26.0000  1277                     26.0000  2184387         
    692   446       26.0000  1202                     26.0000  2199003         
    708   484       26.0000  1138                     26.0000  2313404         
    722   451       26.0000  1212                     26.0000  2260598         
    736   473       26.0000  1398                     26.0000  2290391         
Elapsed time = 3581.46 sec. (544837.65 ticks, tree = 5.56 MB, solutions = 0)
    747   494    infeasible                           26.0000  2353258         
    757   499       26.0000  1057                     26.0000  2357192         
    764   500       26.0000  1062                     26.0000  2374777         
    780   531       26.0800  1367                     26.0000  2565253         
    789   511       26.0053  1146                     26.0000  2408873         
    804   528       26.0000  2136                     26.0000  2542543         
    826   516       26.1304  1342                     26.0000  2424507         
    864   575       28.0000   907                     26.0000  2681077         
    919   534    infeasible                           26.0000  2561957         
    961   645       28.0000   699                     26.0000  2717623         
Elapsed time = 3825.93 sec. (584321.06 ticks, tree = 6.90 MB, solutions = 0)
   1012   680       28.0000   551                     26.0000  2739412         
   1064   595       26.0000  1010                     26.0000  2858435         
   1108   759       28.0000   247                     26.0000  2785587         
   1134   778       28.0000   184                     26.0000  2812124         
*  1138+  804                           28.0000       26.0000             7.14%
   1155   517       26.0000  1208       28.0000       26.0000  3057400    7.14%
   1190   595    infeasible             28.0000       26.0000  2844141    7.14%
   1211   600       26.2599  1377       28.0000       26.0000  2858862    7.14%
   1225   571       26.0000  1137       28.0000       26.0000  3298108    7.14%
   1247   840       26.0000  1633       28.0000       26.0000  3090364    7.14%
   1269   844       26.0000  1588       28.0000       26.0000  3101897    7.14%
Elapsed time = 4070.13 sec. (624060.95 ticks, tree = 6.69 MB, solutions = 1)
   1284   599       26.0000  1100       28.0000       26.0000  3354035    7.14%
   1296   593       26.0000  1520       28.0000       26.0000  3380066    7.14%
   1306   606       26.0000  1577       28.0000       26.0000  3390460    7.14%
   1328   597       26.0000  1808       28.0000       26.0000  3398869    7.14%
   1343   678       26.0000  1460       28.0000       26.0000  3568775    7.14%
   1369   685       26.0000  1405       28.0000       26.0000  3581261    7.14%
   1402   630       26.0000  1158       28.0000       26.0000  3432733    7.14%
   1429   691       26.0000  1865       28.0000       26.0000  3590323    7.14%
   1437   649       26.0000  2321       28.0000       26.0000  3491584    7.14%
   1446   653       26.0000  2240       28.0000       26.0000  3498997    7.14%
Elapsed time = 4346.39 sec. (667728.76 ticks, tree = 9.14 MB, solutions = 1)
   1454   660       26.0000  2176       28.0000       26.0000  3505794    7.14%
   1463   776    infeasible             28.0000       26.0000  3737122    7.14%
   1470   779    infeasible             28.0000       26.0000  3749366    7.14%
   1477   784       26.0000  1195       28.0000       26.0000  3764450    7.14%
   1482   783    infeasible             28.0000       26.0000  3779697    7.14%
   1497   796       26.0000  1627       28.0000       26.0000  3788151    7.14%
   1515   813       26.0000  1561       28.0000       26.0000  3798859    7.14%
   1524   787       26.0000  1450       28.0000       26.0000  3784807    7.14%
   1535   794    infeasible             28.0000       26.0000  3800405    7.14%
   1550   828       26.0000  1346       28.0000       26.0000  3854406    7.14%
Elapsed time = 4622.70 sec. (709327.20 ticks, tree = 10.31 MB, solutions = 1)
   1587   854       26.0000  1208       28.0000       26.0000  3866645    7.14%
   1629   856       26.0000  1801       28.0000       26.0000  3861604    7.14%
   1651   871       26.0000  1713       28.0000       26.0000  3870868    7.14%
   1661   872       26.0000  1394       28.0000       26.0000  3883990    7.14%
   1672   883       26.0000  1316       28.0000       26.0000  3899447    7.14%
   1681   880    infeasible             28.0000       26.0000  3920450    7.14%
   1706   943       26.0000  1525       28.0000       26.0000  4011659    7.14%
   1729   762       26.0000  2118       28.0000       26.0000  3710161    7.14%
   1749   860       27.0000  1453       28.0000       26.0000  3894843    7.14%
   1778   952       26.0000  1956       28.0000       26.0000  4029516    7.14%
Elapsed time = 4914.79 sec. (753842.43 ticks, tree = 12.30 MB, solutions = 1)
   1804   960       26.0000  1873       28.0000       26.0000  4038211    7.14%
   1850   949       26.0000  1143       28.0000       26.0000  3976647    7.14%
   1871   985    infeasible             28.0000       26.0000  4055091    7.14%
   1891  1046       26.0000  1664       28.0000       26.0000  4140960    7.14%
   1927  1077    infeasible             28.0000       26.0000  4204943    7.14%
   1971  1001       26.0000  1053       28.0000       26.0000  4142006    7.14%
   1999  1142       26.0000  1774       28.0000       26.0000  4340647    7.14%
   2028  1163       26.0000  1764       28.0000       26.0000  4347731    7.14%
   2066  1071    infeasible             28.0000       26.0000  4201431    7.14%
   2103  1149       26.0000  1089       28.0000       26.0000  4289471    7.14%
Elapsed time = 5169.42 sec. (794022.10 ticks, tree = 14.56 MB, solutions = 1)
   2144  1160       26.0000  1139       28.0000       26.0000  4303828    7.14%
   2212  1216    infeasible             28.0000       26.0000  4522381    7.14%
   2246  1327       26.0000  1635       28.0000       26.0000  4643523    7.14%
   2270  1221       26.0000  1397       28.0000       26.0000  4440118    7.14%
   2319  1349       26.0000  1697       28.0000       26.0000  4658783    7.14%
   2377  1372       26.0000  1714       28.0000       26.0000  4668329    7.14%
   2411  1240    infeasible             28.0000       26.0000  4582726    7.14%
   2415  1240       26.0000  1686       28.0000       26.0000  4594650    7.14%
   2427  1454       26.0000  1820       28.0000       26.0000  4832824    7.14%
   2431  1384       26.0000  1693       28.0000       26.0000  4673649    7.14%
Elapsed time = 5446.62 sec. (836779.02 ticks, tree = 20.49 MB, solutions = 1)
   2442  1467       26.0000  1761       28.0000       26.0000  4838702    7.14%
   2458  1265       26.0000  1693       28.0000       26.0000  4620433    7.14%
   2461  1481       26.0000  1719       28.0000       26.0000  4862969    7.14%
   2479  1581       26.0000  1261       28.0000       26.0000  4968709    7.14%
   2480  1582       26.0000  2197       28.0000       26.0000  4995427    7.14%
   2482  1583       26.0000  2207       28.0000       26.0000  5039124    7.14%
   2486  1267       26.0000  2261       28.0000       26.0000  5071136    7.14%
   2492   781       26.0000  2620       28.0000       26.0000  5139895    7.14%
   2496   722       26.0000  2689       28.0000       26.0000  5159441    7.14%
   2498   723       26.0000  2514       28.0000       26.0000  5144331    7.14%
Elapsed time = 6601.23 sec. (1064921.89 ticks, tree = 10.06 MB, solutions = 1)
   2501   640       26.0000  2463       28.0000       26.0000  5146912    7.14%
   2504   362       26.0000  2386       28.0000       26.0000  5169253    7.14%
   2507   267       26.0000  2610       28.0000       26.0000  5177609    7.14%
   2511   149       26.0000  2424       28.0000       26.0000  5181395    7.14%
   2521   121       26.0000  2312       28.0000       26.0000  5187814    7.14%
   2527    81       26.0000  2135       28.0000       26.0000  5194408    7.14%
   2532    72       26.0000  2136       28.0000       26.0000  5235112    7.14%
   2534    61       26.0000  2065       28.0000       26.0000  5236841    7.14%
   2538    68       26.0000  2007       28.0000       26.0000  5259070    7.14%
   2540    62       26.0000  2345       28.0000       26.0000  5271806    7.14%
Elapsed time = 6974.32 sec. (1115732.21 ticks, tree = 0.57 MB, solutions = 1)
   2544    64       26.0000  2309       28.0000       26.0000  5275426    7.14%
   2547    65       26.0000  2304       28.0000       26.0000  5279223    7.14%
   2550    67       26.0000  2231       28.0000       26.0000  5283629    7.14%
   2553    70       26.0000  2221       28.0000       26.0000  5288467    7.14%
   2556    73       26.0000  2169       28.0000       26.0000  5292316    7.14%
   2561    76       26.0000  2047       28.0000       26.0000  5295833    7.14%

Root node processing (before b&c):
  Real time             =  177.92 sec. (27671.92 ticks)
Parallel b&c, 4 threads:
  Real time             = 7022.15 sec. (1126809.08 ticks)
  Sync time (average)   =  363.85 sec.
  Wait time (average)   =    0.04 sec.
                          ------------
Total (root+branch&cut) = 7200.07 sec. (1154480.99 ticks)
P#1 = 1.0
P#24 = 1.0
P#34 = 1.0
P#43 = 1.0
P#69 = 1.0
P#78 = 1.0
P#82 = 1.0
P#85 = 1.0
P#94 = 1.0
P#100 = 1.0
P#107 = 1.0
P#133 = 1.0
P#157 = 1.0
P#158 = 1.0
P#181 = 1.0
P#209 = 1.0
P#215 = 1.0
P#221 = 1.0
P#230 = 1.0
P#233 = 1.0
P#237 = 1.0
P#246 = 1.0
P#272 = 1.0
P#281 = 1.0
P#291 = 1.0
P#314 = 1.0
P#236 = 1.0
P#79 = 1.0
X#1#100 = 1.0
X#2#314 = 1.0
X#3#94 = 1.0
X#4#133 = 1.0
X#5#158 = 1.0
X#6#24 = 1.0
X#7#78 = 1.0
X#8#79 = 1.0
X#9#281 = 1.0
X#10#107 = 1.0
X#11#82 = 1.0
X#12#34 = 1.0
X#13#230 = 1.0
X#14#85 = 1.0
X#15#221 = 1.0
X#16#181 = 1.0
X#17#237 = 1.0
X#18#246 = 1.0
X#19#43 = 1.0
X#20#233 = 1.0
X#21#157 = 1.0
X#22#272 = 1.0
X#23#291 = 1.0
X#24#69 = 1.0
X#25#1 = 1.0
X#26#236 = 1.0
X#27#215 = 1.0
X#28#209 = 1.0
L#1#2 = 1.0
L#1#4 = 1.0
L#1#6 = 1.0
L#1#8 = 1.0
L#1#10 = 1.0
L#1#12 = 1.0
L#1#14 = 1.0
L#1#15 = 1.0
L#1#17 = 1.0
L#1#19 = 1.0
L#1#21 = 1.0
L#1#23 = 1.0
L#1#25 = 1.0
L#1#27 = 1.0
L#2#1 = 1.0
L#2#3 = 1.0
L#2#4 = 1.0
L#2#6 = 1.0
L#2#8 = 1.0
L#2#10 = 1.0
L#2#12 = 1.0
L#2#14 = 1.0
L#2#16 = 1.0
L#2#18 = 1.0
L#2#20 = 1.0
L#2#22 = 1.0
L#2#24 = 1.0
L#2#26 = 1.0
L#3#2 = 1.0
L#3#4 = 1.0
L#3#6 = 1.0
L#3#8 = 1.0
L#3#10 = 1.0
L#3#12 = 1.0
L#3#14 = 1.0
L#3#16 = 1.0
L#3#17 = 1.0
L#3#19 = 1.0
L#3#21 = 1.0
L#3#23 = 1.0
L#3#25 = 1.0
L#3#27 = 1.0
L#4#2 = 1.0
L#4#4 = 1.0
L#4#6 = 1.0
L#4#7 = 1.0
L#4#9 = 1.0
L#4#11 = 1.0
L#4#13 = 1.0
L#4#15 = 1.0
L#4#17 = 1.0
L#4#19 = 1.0
L#4#21 = 1.0
L#4#23 = 1.0
L#4#26 = 1.0
L#5#1 = 1.0
L#5#4 = 1.0
L#5#6 = 1.0
L#5#8 = 1.0
L#5#10 = 1.0
L#5#12 = 1.0
L#5#14 = 1.0
L#5#16 = 1.0
L#5#18 = 1.0
L#5#20 = 1.0
L#5#22 = 1.0
L#5#24 = 1.0
L#5#26 = 1.0
L#6#2 = 1.0
L#6#4 = 1.0
L#6#6 = 1.0
L#6#9 = 1.0
L#6#11 = 1.0
L#6#13 = 1.0
L#6#15 = 1.0
L#6#17 = 1.0
L#6#19 = 1.0
L#6#21 = 1.0
L#6#23 = 1.0
L#6#25 = 1.0
L#6#27 = 1.0
L#7#2 = 1.0
L#7#4 = 1.0
L#7#6 = 1.0
L#7#8 = 1.0
L#7#10 = 1.0
L#7#12 = 1.0
L#7#14 = 1.0
L#7#16 = 1.0
L#7#18 = 1.0
L#7#20 = 1.0
L#7#22 = 1.0
L#7#24 = 1.0
L#7#27 = 1.0
L#8#2 = 1.0
L#8#4 = 1.0
L#8#6 = 1.0
L#8#8 = 1.0
L#8#10 = 1.0
L#8#12 = 1.0
L#8#14 = 1.0
L#8#16 = 1.0
L#8#18 = 1.0
L#8#20 = 1.0
L#8#22 = 1.0
L#8#24 = 1.0
L#8#26 = 1.0
L#9#1 = 1.0
L#9#3 = 1.0
L#9#5 = 1.0
L#9#7 = 1.0
L#9#9 = 1.0
L#9#10 = 1.0
L#9#12 = 1.0
L#9#14 = 1.0
L#9#16 = 1.0
L#9#18 = 1.0
L#9#20 = 1.0
L#9#22 = 1.0
L#9#24 = 1.0
L#9#26 = 1.0
L#10#2 = 1.0
L#10#4 = 1.0
L#10#6 = 1.0
L#10#8 = 1.0
L#10#10 = 1.0
L#10#12 = 1.0
L#10#13 = 1.0
L#10#15 = 1.0
L#10#17 = 1.0
L#10#19 = 1.0
L#10#21 = 1.0
L#10#23 = 1.0
L#10#25 = 1.0
L#10#27 = 1.0
L#11#2 = 1.0
L#11#4 = 1.0
L#11#6 = 1.0
L#11#8 = 1.0
L#11#10 = 1.0
L#11#12 = 1.0
L#11#14 = 1.0
L#11#16 = 1.0
L#11#18 = 1.0
L#11#20 = 1.0
L#11#22 = 1.0
L#11#23 = 1.0
L#11#25 = 1.0
L#11#27 = 1.0
L#12#2 = 1.0
L#12#4 = 1.0
L#12#6 = 1.0
L#12#8 = 1.0
L#12#11 = 1.0
L#12#13 = 1.0
L#12#15 = 1.0
L#12#17 = 1.0
L#12#19 = 1.0
L#12#21 = 1.0
L#12#23 = 1.0
L#12#25 = 1.0
L#12#27 = 1.0
L#13#1 = 1.0
L#13#3 = 1.0
L#13#5 = 1.0
L#13#7 = 1.0
L#13#9 = 1.0
L#13#11 = 1.0
L#13#13 = 1.0
L#13#15 = 1.0
L#13#17 = 1.0
L#13#19 = 1.0
L#13#22 = 1.0
L#13#24 = 1.0
L#13#26 = 1.0
L#14#2 = 1.0
L#14#4 = 1.0
L#14#6 = 1.0
L#14#8 = 1.0
L#14#10 = 1.0
L#14#12 = 1.0
L#14#14 = 1.0
L#14#16 = 1.0
L#14#18 = 1.0
L#14#20 = 1.0
L#14#21 = 1.0
L#14#23 = 1.0
L#14#25 = 1.0
L#14#27 = 1.0
L#15#1 = 1.0
L#15#3 = 1.0
L#15#5 = 1.0
L#15#7 = 1.0
L#15#9 = 1.0
L#15#11 = 1.0
L#15#13 = 1.0
L#15#15 = 1.0
L#15#18 = 1.0
L#15#20 = 1.0
L#15#22 = 1.0
L#15#24 = 1.0
L#15#26 = 1.0
L#16#1 = 1.0
L#16#3 = 1.0
L#16#5 = 1.0
L#16#8 = 1.0
L#16#10 = 1.0
L#16#12 = 1.0
L#16#14 = 1.0
L#16#16 = 1.0
L#16#18 = 1.0
L#16#20 = 1.0
L#16#22 = 1.0
L#16#24 = 1.0
L#16#26 = 1.0
L#17#1 = 1.0
L#17#3 = 1.0
L#17#5 = 1.0
L#17#7 = 1.0
L#17#9 = 1.0
L#17#11 = 1.0
L#17#13 = 1.0
L#17#15 = 1.0
L#17#17 = 1.0
L#17#19 = 1.0
L#17#21 = 1.0
L#17#23 = 1.0
L#17#25 = 1.0
L#17#26 = 1.0
L#18#1 = 1.0
L#18#3 = 1.0
L#18#5 = 1.0
L#18#7 = 1.0
L#18#9 = 1.0
L#18#11 = 1.0
L#18#13 = 1.0
L#18#15 = 1.0
L#18#17 = 1.0
L#18#19 = 1.0
L#18#20 = 1.0
L#18#22 = 1.0
L#18#24 = 1.0
L#18#26 = 1.0
L#19#2 = 1.0
L#19#4 = 1.0
L#19#6 = 1.0
L#19#8 = 1.0
L#19#10 = 1.0
L#19#13 = 1.0
L#19#15 = 1.0
L#19#17 = 1.0
L#19#19 = 1.0
L#19#21 = 1.0
L#19#23 = 1.0
L#19#25 = 1.0
L#19#27 = 1.0
L#20#1 = 1.0
L#20#3 = 1.0
L#20#5 = 1.0
L#20#7 = 1.0
L#20#9 = 1.0
L#20#11 = 1.0
L#20#13 = 1.0
L#20#15 = 1.0
L#20#17 = 1.0
L#20#19 = 1.0
L#20#21 = 1.0
L#20#24 = 1.0
L#20#26 = 1.0
L#21#2 = 1.0
L#21#3 = 1.0
L#21#5 = 1.0
L#21#7 = 1.0
L#21#9 = 1.0
L#21#11 = 1.0
L#21#13 = 1.0
L#21#15 = 1.0
L#21#17 = 1.0
L#21#19 = 1.0
L#21#21 = 1.0
L#21#23 = 1.0
L#21#25 = 1.0
L#21#27 = 1.0
L#22#1 = 1.0
L#22#3 = 1.0
L#22#5 = 1.0
L#22#7 = 1.0
L#22#9 = 1.0
L#22#11 = 1.0
L#22#12 = 1.0
L#22#14 = 1.0
L#22#16 = 1.0
L#22#18 = 1.0
L#22#20 = 1.0
L#22#22 = 1.0
L#22#24 = 1.0
L#22#26 = 1.0
L#23#1 = 1.0
L#23#3 = 1.0
L#23#5 = 1.0
L#23#7 = 1.0
L#23#8 = 1.0
L#23#10 = 1.0
L#23#12 = 1.0
L#23#14 = 1.0
L#23#16 = 1.0
L#23#18 = 1.0
L#23#20 = 1.0
L#23#22 = 1.0
L#23#24 = 1.0
L#23#26 = 1.0
L#24#2 = 1.0
L#24#4 = 1.0
L#24#6 = 1.0
L#24#8 = 1.0
L#24#10 = 1.0
L#24#12 = 1.0
L#24#14 = 1.0
L#24#16 = 1.0
L#24#18 = 1.0
L#24#21 = 1.0
L#24#23 = 1.0
L#24#25 = 1.0
L#24#27 = 1.0
L#25#2 = 1.0
L#25#5 = 1.0
L#25#7 = 1.0
L#25#9 = 1.0
L#25#11 = 1.0
L#25#13 = 1.0
L#25#15 = 1.0
L#25#17 = 1.0
L#25#19 = 1.0
L#25#21 = 1.0
L#25#23 = 1.0
L#25#25 = 1.0
L#25#27 = 1.0
L#26#1 = 1.0
L#26#3 = 1.0
L#26#5 = 1.0
L#26#7 = 1.0
L#26#9 = 1.0
L#26#11 = 1.0
L#26#13 = 1.0
L#26#15 = 1.0
L#26#17 = 1.0
L#26#19 = 1.0
L#26#21 = 1.0
L#26#23 = 1.0
L#26#25 = 1.0
L#26#27 = 1.0
L#27#1 = 1.0
L#27#3 = 1.0
L#27#5 = 1.0
L#27#7 = 1.0
L#27#9 = 1.0
L#27#11 = 1.0
L#27#13 = 1.0
L#27#16 = 1.0
L#27#18 = 1.0
L#27#20 = 1.0
L#27#22 = 1.0
L#27#24 = 1.0
L#27#26 = 1.0
L#28#1 = 1.0
L#28#3 = 1.0
L#28#5 = 1.0
L#28#7 = 1.0
L#28#9 = 1.0
L#28#11 = 1.0
L#28#14 = 1.0
L#28#16 = 1.0
L#28#18 = 1.0
L#28#20 = 1.0
L#28#22 = 1.0
L#28#24 = 1.0
L#28#25 = 1.0
L#28#27 = 1.0
F#1#2#21 = 1.0
F#3#1#16 = 1.0
F#1#4#8 = 1.0
F#5#1#22 = 1.0
F#1#6#10 = 1.0
F#1#7#19 = 1.0
F#1#8#25 = 1.0
F#9#1#24 = 1.0
F#10#1#13 = 1.0
F#11#1#20 = 1.0
F#1#12#12 = 1.0
F#13#1#3 = 1.0
F#1#14#15 = 1.0
F#15#1#5 = 1.0
F#1#16#27 = 1.0
F#1#17#6 = 1.0
F#18#1#1 = 1.0
F#1#19#14 = 1.0
F#1#20#4 = 1.0
F#21#1#11 = 1.0
F#1#22#23 = 1.0
F#23#1#18 = 1.0
F#1#24#17 = 1.0
F#25#1#7 = 1.0
F#26#1#9 = 1.0
F#27#1#26 = 1.0
F#1#28#2 = 1.0
F#3#2#2 = 1.0
F#4#2#19 = 1.0
F#2#5#3 = 1.0
F#2#6#20 = 1.0
F#7#2#27 = 1.0
F#2#8#1 = 1.0
F#9#2#7 = 1.0
F#2#10#22 = 1.0
F#2#11#24 = 1.0
F#12#2#15 = 1.0
F#2#13#18 = 1.0
F#14#2#25 = 1.0
F#2#15#8 = 1.0
F#2#16#6 = 1.0
F#2#17#14 = 1.0
F#2#18#10 = 1.0
F#2#19#26 = 1.0
F#20#2#17 = 1.0
F#21#2#13 = 1.0
F#2#22#4 = 1.0
F#23#2#5 = 1.0
F#24#2#23 = 1.0
F#2#25#16 = 1.0
F#2#26#12 = 1.0
F#27#2#9 = 1.0
F#28#2#11 = 1.0
F#4#3#11 = 1.0
F#5#3#24 = 1.0
F#3#6#12 = 1.0
F#7#3#20 = 1.0
F#3#8#23 = 1.0
F#3#9#27 = 1.0
F#10#3#15 = 1.0
F#3#11#17 = 1.0
F#3#12#14 = 1.0
F#13#3#7 = 1.0
F#14#3#18 = 1.0
F#3#15#6 = 1.0
F#3#16#25 = 1.0
F#17#3#9 = 1.0
F#18#3#5 = 1.0
F#19#3#13 = 1.0
F#20#3#26 = 1.0
F#3#21#4 = 1.0
F#22#3#3 = 1.0
F#3#23#21 = 1.0
F#3#24#19 = 1.0
F#3#25#8 = 1.0
F#3#26#10 = 1.0
F#27#3#1 = 1.0
F#28#3#22 = 1.0
F#4#5#13 = 1.0
F#6#4#27 = 1.0
F#7#4#16 = 1.0
F#4#8#15 = 1.0
F#4#9#21 = 1.0
F#4#10#7 = 1.0
F#11#4#14 = 1.0
F#4#12#26 = 1.0
F#13#4#5 = 1.0
F#14#4#12 = 1.0
F#15#4#22 = 1.0
F#16#4#18 = 1.0
F#17#4#1 = 1.0
F#4#18#2 = 1.0
F#19#4#10 = 1.0
F#20#4#3 = 1.0
F#4#21#6 = 1.0
F#22#4#20 = 1.0
F#4#23#17 = 1.0
F#4#24#9 = 1.0
F#25#4#25 = 1.0
F#4#26#4 = 1.0
F#4#27#23 = 1.0
F#28#4#24 = 1.0
F#6#5#21 = 1.0
F#5#7#1 = 1.0
F#8#5#2 = 1.0
F#9#5#5 = 1.0
F#5#10#14 = 1.0
F#11#5#25 = 1.0
F#5#12#20 = 1.0
F#5#13#12 = 1.0
F#14#5#27 = 1.0
F#5#15#10 = 1.0
F#5#16#4 = 1.0
F#17#5#15 = 1.0
F#18#5#9 = 1.0
F#19#5#23 = 1.0
F#5#20#18 = 1.0
F#5#21#16 = 1.0
F#22#5#11 = 1.0
F#5#23#6 = 1.0
F#5#24#26 = 1.0
F#25#5#19 = 1.0
F#26#5#17 = 1.0
F#27#5#7 = 1.0
F#5#28#8 = 1.0
F#6#7#15 = 1.0
F#8#6#16 = 1.0
F#6#9#17 = 1.0
F#6#10#11 = 1.0
F#11#6#18 = 1.0
F#6#12#9 = 1.0
F#13#6#1 = 1.0
F#14#6#14 = 1.0
F#6#15#25 = 1.0
F#16#6#24 = 1.0
F#17#6#3 = 1.0
F#18#6#26 = 1.0
F#19#6#8 = 1.0
F#6#20#6 = 1.0
F#21#6#5 = 1.0
F#22#6#22 = 1.0
F#6#23#19 = 1.0
F#6#24#13 = 1.0
F#6#25#4 = 1.0
F#26#6#7 = 1.0
F#6#27#2 = 1.0
F#6#28#23 = 1.0
F#8#7#26 = 1.0
F#7#9#4 = 1.0
F#10#7#21 = 1.0
F#11#7#23 = 1.0
F#7#12#18 = 1.0
F#7#13#8 = 1.0
F#7#14#22 = 1.0
F#15#7#13 = 1.0
F#7#16#2 = 1.0
F#17#7#11 = 1.0
F#18#7#7 = 1.0
F#19#7#17 = 1.0
F#7#20#10 = 1.0
F#7#21#14 = 1.0
F#7#22#6 = 1.0
F#23#7#3 = 1.0
F#24#7#25 = 1.0
F#7#25#12 = 1.0
F#7#26#24 = 1.0
F#27#7#5 = 1.0
F#28#7#9 = 1.0
F#8#9#6 = 1.0
F#8#10#20 = 1.0
F#11#8#27 = 1.0
F#8#12#22 = 1.0
F#8#13#10 = 1.0
F#8#14#24 = 1.0
F#15#8#9 = 1.0
F#16#8#3 = 1.0
F#17#8#19 = 1.0
F#8#18#12 = 1.0
F#8#19#18 = 1.0
F#20#8#11 = 1.0
F#21#8#17 = 1.0
F#22#8#5 = 1.0
F#8#23#4 = 1.0
F#24#8#21 = 1.0
F#8#25#14 = 1.0
F#26#8#13 = 1.0
F#8#27#8 = 1.0
F#28#8#7 = 1.0
F#9#10#26 = 1.0
F#9#11#3 = 1.0
F#12#9#23 = 1.0
F#13#9#19 = 1.0
F#9#14#1 = 1.0
F#9#15#16 = 1.0
F#16#9#8 = 1.0
F#9#17#20 = 1.0
F#9#18#14 = 1.0
F#9#19#22 = 1.0
F#20#9#13 = 1.0
F#21#9#25 = 1.0
F#9#22#10 = 1.0
F#9#23#9 = 1.0
F#24#9#2 = 1.0
F#25#9#15 = 1.0
F#9#26#18 = 1.0
F#27#9#11 = 1.0
F#9#28#12 = 1.0
F#10#11#19 = 1.0
F#10#12#10 = 1.0
F#10#13#2 = 1.0
F#14#10#16 = 1.0
F#15#10#3 = 1.0
F#10#16#17 = 1.0
F#10#17#4 = 1.0
F#10#18#27 = 1.0
F#10#19#12 = 1.0
F#20#10#5 = 1.0
F#10#21#8 = 1.0
F#22#10#24 = 1.0
F#10#23#23 = 1.0
F#24#10#18 = 1.0
F#25#10#9 = 1.0
F#10#26#6 = 1.0
F#10#27#25 = 1.0
F#28#10#1 = 1.0
F#12#11#13 = 1.0
F#13#11#9 = 1.0
F#14#11#21 = 1.0
F#11#15#4 = 1.0
F#16#11#1 = 1.0
F#11#17#12 = 1.0
F#18#11#11 = 1.0
F#11#19#16 = 1.0
F#20#11#7 = 1.0
F#21#11#15 = 1.0
F#11#22#2 = 1.0
F#23#11#26 = 1.0
F#11#24#22 = 1.0
F#11#25#10 = 1.0
F#11#26#8 = 1.0
F#11#27#6 = 1.0
F#28#11#5 = 1.0
F#12#13#25 = 1.0
F#12#14#17 = 1.0
F#15#12#24 = 1.0
F#12#16#19 = 1.0
F#12#17#8 = 1.0
F#18#12#3 = 1.0
F#12#19#11 = 1.0
F#12#20#2 = 1.0
F#21#12#7 = 1.0
F#12#22#27 = 1.0
F#23#12#1 = 1.0
F#24#12#16 = 1.0
F#12#25#6 = 1.0
F#26#12#5 = 1.0
F#12#27#4 = 1.0
F#12#28#21 = 1.0
F#14#13#6 = 1.0
F#13#15#17 = 1.0
F#16#13#14 = 1.0
F#13#17#24 = 1.0
F#18#13#20 = 1.0
F#19#13#21 = 1.0
F#13#20#22 = 1.0
F#13#21#26 = 1.0
F#13#22#15 = 1.0
F#13#23#11 = 1.0
F#24#13#4 = 1.0
F#25#13#23 = 1.0
F#26#13#27 = 1.0
F#27#13#16 = 1.0
F#13#28#13 = 1.0
F#15#14#7 = 1.0
F#14#16#23 = 1.0
F#17#14#5 = 1.0
F#14#18#8 = 1.0
F#19#14#19 = 1.0
F#20#14#9 = 1.0
F#14#21#10 = 1.0
F#22#14#26 = 1.0
F#14#23#2 = 1.0
F#14#24#20 = 1.0
F#25#14#13 = 1.0
F#26#14#11 = 1.0
F#27#14#3 = 1.0
F#14#28#4 = 1.0
F#15#16#11 = 1.0
F#17#15#21 = 1.0
F#15#18#18 = 1.0
F#19#15#2 = 1.0
F#20#15#19 = 1.0
F#15#21#20 = 1.0
F#22#15#14 = 1.0
F#23#15#12 = 1.0
F#15#24#1 = 1.0
F#15#25#26 = 1.0
F#26#15#23 = 1.0
F#15#27#15 = 1.0
F#28#15#27 = 1.0
F#16#17#16 = 1.0
F#18#16#13 = 1.0
F#16#19#20 = 1.0
F#16#20#12 = 1.0
F#16#21#22 = 1.0
F#22#16#9 = 1.0
F#23#16#7 = 1.0
F#16#24#5 = 1.0
F#25#16#21 = 1.0
F#26#16#15 = 1.0
F#16#27#10 = 1.0
F#16#28#26 = 1.0
F#17#18#25 = 1.0
F#17#19#7 = 1.0
F#17#20#23 = 1.0
F#21#17#2 = 1.0
F#17#22#13 = 1.0
F#23#17#22 = 1.0
F#24#17#10 = 1.0
F#25#17#27 = 1.0
F#17#26#26 = 1.0
F#27#17#18 = 1.0
F#17#28#17 = 1.0
F#19#18#4 = 1.0
F#20#18#21 = 1.0
F#21#18#23 = 1.0
F#18#22#19 = 1.0
F#18#23#15 = 1.0
F#24#18#6 = 1.0
F#18#25#24 = 1.0
F#18#26#22 = 1.0
F#18#27#17 = 1.0
F#28#18#16 = 1.0
F#19#20#27 = 1.0
F#21#19#9 = 1.0
F#22#19#1 = 1.0
F#19#23#25 = 1.0
F#19#24#15 = 1.0
F#25#19#5 = 1.0
F#26#19#3 = 1.0
F#27#19#24 = 1.0
F#19#28#6 = 1.0
F#20#21#24 = 1.0
F#22#20#16 = 1.0
F#23#20#14 = 1.0
F#24#20#8 = 1.0
F#20#25#1 = 1.0
F#26#20#25 = 1.0
F#27#20#20 = 1.0
F#20#28#15 = 1.0
F#22#21#18 = 1.0
F#21#23#27 = 1.0
F#24#21#12 = 1.0
F#21#25#3 = 1.0
F#26#21#1 = 1.0
F#21#27#21 = 1.0
F#21#28#19 = 1.0
F#23#22#8 = 1.0
F#22#24#7 = 1.0
F#25#22#17 = 1.0
F#26#22#21 = 1.0
F#22#27#12 = 1.0
F#28#22#25 = 1.0
F#23#24#24 = 1.0
F#23#25#20 = 1.0
F#23#26#16 = 1.0
F#27#23#13 = 1.0
F#23#28#10 = 1.0
F#25#24#11 = 1.0
F#24#26#14 = 1.0
F#24#27#27 = 1.0
F#28#24#3 = 1.0
F#25#26#2 = 1.0
F#27#25#22 = 1.0
F#28#25#18 = 1.0
F#26#27#19 = 1.0
F#28#26#20 = 1.0
F#28#27#14 = 1.0
VC#1#2 = 4.0
VC#1#3 = 2.0
VC#2#2 = 4.0
VC#2#3 = 2.0
VC#3#2 = 4.0
VC#3#3 = 2.0
VC#4#2 = 4.0
VC#4#3 = 1.0
VC#5#2 = 4.0
VC#5#3 = 2.0
VC#6#2 = 4.0
VC#6#3 = 1.0
VC#7#2 = 4.0
VC#7#3 = 2.0
VC#8#2 = 4.0
VC#8#3 = 2.0
VC#9#2 = 4.0
VC#9#3 = 1.0
VC#10#2 = 4.0
VC#10#3 = 1.0
VC#11#2 = 4.0
VC#11#3 = 1.0
VC#12#2 = 4.0
VC#12#3 = 1.0
VC#13#2 = 4.0
VC#13#3 = 2.0
VC#14#2 = 4.0
VC#14#3 = 2.0
VC#15#2 = 4.0
VC#15#3 = 2.0
VC#16#2 = 4.0
VC#16#3 = 1.0
VC#17#2 = 4.0
VC#17#3 = 1.0
VC#18#1 = 8.0
VC#18#3 = 1.0
VC#19#1 = 9.0
VC#19#3 = 2.0
VC#20#1 = 8.0
VC#20#3 = 2.0
VC#21#1 = 9.0
VC#21#3 = 1.0
VC#22#1 = 8.0
VC#22#3 = 2.0
VC#23#1 = 9.0
VC#23#3 = 1.0
VC#24#1 = 9.0
VC#24#3 = 1.0
VC#25#1 = 8.0
VC#25#3 = 2.0
VC#26#1 = 8.0
VC#26#2 = 4.0
VC#27#1 = 8.0
VC#27#2 = 4.0
VC#28#1 = 9.0
VC#28#2 = 4.0
LC#1#2 = 4.0
LC#1#3 = 1.0
LC#2#2 = 4.0
LC#2#3 = 1.0
LC#3#2 = 4.0
LC#3#3 = 1.0
LC#4#2 = 4.0
LC#4#3 = 2.0
LC#5#2 = 4.0
LC#5#3 = 1.0
LC#6#2 = 4.0
LC#6#3 = 2.0
LC#7#2 = 4.0
LC#7#3 = 1.0
LC#8#2 = 4.0
LC#8#3 = 1.0
LC#9#2 = 4.0
LC#9#3 = 2.0
LC#10#2 = 4.0
LC#10#3 = 2.0
LC#11#2 = 4.0
LC#11#3 = 2.0
LC#12#2 = 4.0
LC#12#3 = 2.0
LC#13#2 = 4.0
LC#13#3 = 1.0
LC#14#2 = 4.0
LC#14#3 = 1.0
LC#15#2 = 4.0
LC#15#3 = 1.0
LC#16#2 = 4.0
LC#16#3 = 2.0
LC#17#2 = 4.0
LC#17#3 = 2.0
LC#18#1 = 9.0
LC#18#3 = 2.0
LC#19#1 = 8.0
LC#19#3 = 1.0
LC#20#1 = 9.0
LC#20#3 = 1.0
LC#21#1 = 8.0
LC#21#3 = 2.0
LC#22#1 = 9.0
LC#22#3 = 1.0
LC#23#1 = 8.0
LC#23#3 = 2.0
LC#24#1 = 8.0
LC#24#3 = 2.0
LC#25#1 = 9.0
LC#25#3 = 1.0
LC#26#1 = 9.0
LC#26#2 = 4.0
LC#27#1 = 9.0
LC#27#2 = 4.0
LC#28#1 = 8.0
LC#28#2 = 4.0
LC#1#1 = 1.0
LC#2#1 = 1.0
LC#3#1 = 1.0
LC#4#1 = 1.0
LC#5#1 = 1.0
LC#6#1 = 1.0
LC#7#1 = 1.0
LC#8#1 = 1.0
LC#9#1 = 1.0
LC#10#1 = 1.0
LC#11#1 = 1.0
LC#12#1 = 1.0
LC#13#1 = 1.0
LC#14#1 = 1.0
LC#15#1 = 1.0
LC#16#1 = 1.0
LC#17#1 = 1.0
LC#18#2 = 1.0
LC#19#2 = 1.0
LC#20#2 = 1.0
LC#21#2 = 1.0
LC#22#2 = 1.0
LC#23#2 = 1.0
LC#24#2 = 1.0
LC#25#2 = 1.0
LC#26#3 = 1.0
LC#27#3 = 1.0
LC#28#3 = 1.0
